
  12    4
  10   10   10   10

   0   0   0   0   0   5 2 3 4 6 7 
   7  10  10  10  10   2 11 5 
   1  10  10  10  10   2 11 5 
   4  10  10  10  10   3 11 10 8 
   1  10  10  10  10   2 10 8 
   1  10  10  10  10   2 10 9 
   7  10  10  10  10   2 10 9 
   7  10  10  10  10   1 9 
   7  10  10  10  10   1 12
   7  10  10  10  10   1 12
   8  10  10  10  10   1 12
   0   0   0   0   0   0 
